c FILE: hole12.cnf
c SOURCE: file mkhole.ml of Sylvain.Boulme@imag.fr
c DESCRIPTION: placing each of 13 pigeons in 12 distinct holes (one pigeon by hole)
c NOTE: Not Satisfiable
p cnf 156 949
156 155 154 153 152 151 150 149 148 147 146 145 0
144 143 142 141 140 139 138 137 136 135 134 133 0
132 131 130 129 128 127 126 125 124 123 122 121 0
120 119 118 117 116 115 114 113 112 111 110 109 0
108 107 106 105 104 103 102 101 100 99 98 97 0
96 95 94 93 92 91 90 89 88 87 86 85 0
84 83 82 81 80 79 78 77 76 75 74 73 0
72 71 70 69 68 67 66 65 64 63 62 61 0
60 59 58 57 56 55 54 53 52 51 50 49 0
48 47 46 45 44 43 42 41 40 39 38 37 0
36 35 34 33 32 31 30 29 28 27 26 25 0
24 23 22 21 20 19 18 17 16 15 14 13 0
12 11 10 9 8 7 6 5 4 3 2 1 0
-156 -144 0
-156 -132 0
-156 -120 0
-156 -108 0
-156 -96 0
-156 -84 0
-156 -72 0
-156 -60 0
-156 -48 0
-156 -36 0
-156 -24 0
-156 -12 0
-144 -132 0
-144 -120 0
-144 -108 0
-144 -96 0
-144 -84 0
-144 -72 0
-144 -60 0
-144 -48 0
-144 -36 0
-144 -24 0
-144 -12 0
-132 -120 0
-132 -108 0
-132 -96 0
-132 -84 0
-132 -72 0
-132 -60 0
-132 -48 0
-132 -36 0
-132 -24 0
-132 -12 0
-120 -108 0
-120 -96 0
-120 -84 0
-120 -72 0
-120 -60 0
-120 -48 0
-120 -36 0
-120 -24 0
-120 -12 0
-108 -96 0
-108 -84 0
-108 -72 0
-108 -60 0
-108 -48 0
-108 -36 0
-108 -24 0
-108 -12 0
-96 -84 0
-96 -72 0
-96 -60 0
-96 -48 0
-96 -36 0
-96 -24 0
-96 -12 0
-84 -72 0
-84 -60 0
-84 -48 0
-84 -36 0
-84 -24 0
-84 -12 0
-72 -60 0
-72 -48 0
-72 -36 0
-72 -24 0
-72 -12 0
-60 -48 0
-60 -36 0
-60 -24 0
-60 -12 0
-48 -36 0
-48 -24 0
-48 -12 0
-36 -24 0
-36 -12 0
-24 -12 0
-155 -143 0
-155 -131 0
-155 -119 0
-155 -107 0
-155 -95 0
-155 -83 0
-155 -71 0
-155 -59 0
-155 -47 0
-155 -35 0
-155 -23 0
-155 -11 0
-143 -131 0
-143 -119 0
-143 -107 0
-143 -95 0
-143 -83 0
-143 -71 0
-143 -59 0
-143 -47 0
-143 -35 0
-143 -23 0
-143 -11 0
-131 -119 0
-131 -107 0
-131 -95 0
-131 -83 0
-131 -71 0
-131 -59 0
-131 -47 0
-131 -35 0
-131 -23 0
-131 -11 0
-119 -107 0
-119 -95 0
-119 -83 0
-119 -71 0
-119 -59 0
-119 -47 0
-119 -35 0
-119 -23 0
-119 -11 0
-107 -95 0
-107 -83 0
-107 -71 0
-107 -59 0
-107 -47 0
-107 -35 0
-107 -23 0
-107 -11 0
-95 -83 0
-95 -71 0
-95 -59 0
-95 -47 0
-95 -35 0
-95 -23 0
-95 -11 0
-83 -71 0
-83 -59 0
-83 -47 0
-83 -35 0
-83 -23 0
-83 -11 0
-71 -59 0
-71 -47 0
-71 -35 0
-71 -23 0
-71 -11 0
-59 -47 0
-59 -35 0
-59 -23 0
-59 -11 0
-47 -35 0
-47 -23 0
-47 -11 0
-35 -23 0
-35 -11 0
-23 -11 0
-154 -142 0
-154 -130 0
-154 -118 0
-154 -106 0
-154 -94 0
-154 -82 0
-154 -70 0
-154 -58 0
-154 -46 0
-154 -34 0
-154 -22 0
-154 -10 0
-142 -130 0
-142 -118 0
-142 -106 0
-142 -94 0
-142 -82 0
-142 -70 0
-142 -58 0
-142 -46 0
-142 -34 0
-142 -22 0
-142 -10 0
-130 -118 0
-130 -106 0
-130 -94 0
-130 -82 0
-130 -70 0
-130 -58 0
-130 -46 0
-130 -34 0
-130 -22 0
-130 -10 0
-118 -106 0
-118 -94 0
-118 -82 0
-118 -70 0
-118 -58 0
-118 -46 0
-118 -34 0
-118 -22 0
-118 -10 0
-106 -94 0
-106 -82 0
-106 -70 0
-106 -58 0
-106 -46 0
-106 -34 0
-106 -22 0
-106 -10 0
-94 -82 0
-94 -70 0
-94 -58 0
-94 -46 0
-94 -34 0
-94 -22 0
-94 -10 0
-82 -70 0
-82 -58 0
-82 -46 0
-82 -34 0
-82 -22 0
-82 -10 0
-70 -58 0
-70 -46 0
-70 -34 0
-70 -22 0
-70 -10 0
-58 -46 0
-58 -34 0
-58 -22 0
-58 -10 0
-46 -34 0
-46 -22 0
-46 -10 0
-34 -22 0
-34 -10 0
-22 -10 0
-153 -141 0
-153 -129 0
-153 -117 0
-153 -105 0
-153 -93 0
-153 -81 0
-153 -69 0
-153 -57 0
-153 -45 0
-153 -33 0
-153 -21 0
-153 -9 0
-141 -129 0
-141 -117 0
-141 -105 0
-141 -93 0
-141 -81 0
-141 -69 0
-141 -57 0
-141 -45 0
-141 -33 0
-141 -21 0
-141 -9 0
-129 -117 0
-129 -105 0
-129 -93 0
-129 -81 0
-129 -69 0
-129 -57 0
-129 -45 0
-129 -33 0
-129 -21 0
-129 -9 0
-117 -105 0
-117 -93 0
-117 -81 0
-117 -69 0
-117 -57 0
-117 -45 0
-117 -33 0
-117 -21 0
-117 -9 0
-105 -93 0
-105 -81 0
-105 -69 0
-105 -57 0
-105 -45 0
-105 -33 0
-105 -21 0
-105 -9 0
-93 -81 0
-93 -69 0
-93 -57 0
-93 -45 0
-93 -33 0
-93 -21 0
-93 -9 0
-81 -69 0
-81 -57 0
-81 -45 0
-81 -33 0
-81 -21 0
-81 -9 0
-69 -57 0
-69 -45 0
-69 -33 0
-69 -21 0
-69 -9 0
-57 -45 0
-57 -33 0
-57 -21 0
-57 -9 0
-45 -33 0
-45 -21 0
-45 -9 0
-33 -21 0
-33 -9 0
-21 -9 0
-152 -140 0
-152 -128 0
-152 -116 0
-152 -104 0
-152 -92 0
-152 -80 0
-152 -68 0
-152 -56 0
-152 -44 0
-152 -32 0
-152 -20 0
-152 -8 0
-140 -128 0
-140 -116 0
-140 -104 0
-140 -92 0
-140 -80 0
-140 -68 0
-140 -56 0
-140 -44 0
-140 -32 0
-140 -20 0
-140 -8 0
-128 -116 0
-128 -104 0
-128 -92 0
-128 -80 0
-128 -68 0
-128 -56 0
-128 -44 0
-128 -32 0
-128 -20 0
-128 -8 0
-116 -104 0
-116 -92 0
-116 -80 0
-116 -68 0
-116 -56 0
-116 -44 0
-116 -32 0
-116 -20 0
-116 -8 0
-104 -92 0
-104 -80 0
-104 -68 0
-104 -56 0
-104 -44 0
-104 -32 0
-104 -20 0
-104 -8 0
-92 -80 0
-92 -68 0
-92 -56 0
-92 -44 0
-92 -32 0
-92 -20 0
-92 -8 0
-80 -68 0
-80 -56 0
-80 -44 0
-80 -32 0
-80 -20 0
-80 -8 0
-68 -56 0
-68 -44 0
-68 -32 0
-68 -20 0
-68 -8 0
-56 -44 0
-56 -32 0
-56 -20 0
-56 -8 0
-44 -32 0
-44 -20 0
-44 -8 0
-32 -20 0
-32 -8 0
-20 -8 0
-151 -139 0
-151 -127 0
-151 -115 0
-151 -103 0
-151 -91 0
-151 -79 0
-151 -67 0
-151 -55 0
-151 -43 0
-151 -31 0
-151 -19 0
-151 -7 0
-139 -127 0
-139 -115 0
-139 -103 0
-139 -91 0
-139 -79 0
-139 -67 0
-139 -55 0
-139 -43 0
-139 -31 0
-139 -19 0
-139 -7 0
-127 -115 0
-127 -103 0
-127 -91 0
-127 -79 0
-127 -67 0
-127 -55 0
-127 -43 0
-127 -31 0
-127 -19 0
-127 -7 0
-115 -103 0
-115 -91 0
-115 -79 0
-115 -67 0
-115 -55 0
-115 -43 0
-115 -31 0
-115 -19 0
-115 -7 0
-103 -91 0
-103 -79 0
-103 -67 0
-103 -55 0
-103 -43 0
-103 -31 0
-103 -19 0
-103 -7 0
-91 -79 0
-91 -67 0
-91 -55 0
-91 -43 0
-91 -31 0
-91 -19 0
-91 -7 0
-79 -67 0
-79 -55 0
-79 -43 0
-79 -31 0
-79 -19 0
-79 -7 0
-67 -55 0
-67 -43 0
-67 -31 0
-67 -19 0
-67 -7 0
-55 -43 0
-55 -31 0
-55 -19 0
-55 -7 0
-43 -31 0
-43 -19 0
-43 -7 0
-31 -19 0
-31 -7 0
-19 -7 0
-150 -138 0
-150 -126 0
-150 -114 0
-150 -102 0
-150 -90 0
-150 -78 0
-150 -66 0
-150 -54 0
-150 -42 0
-150 -30 0
-150 -18 0
-150 -6 0
-138 -126 0
-138 -114 0
-138 -102 0
-138 -90 0
-138 -78 0
-138 -66 0
-138 -54 0
-138 -42 0
-138 -30 0
-138 -18 0
-138 -6 0
-126 -114 0
-126 -102 0
-126 -90 0
-126 -78 0
-126 -66 0
-126 -54 0
-126 -42 0
-126 -30 0
-126 -18 0
-126 -6 0
-114 -102 0
-114 -90 0
-114 -78 0
-114 -66 0
-114 -54 0
-114 -42 0
-114 -30 0
-114 -18 0
-114 -6 0
-102 -90 0
-102 -78 0
-102 -66 0
-102 -54 0
-102 -42 0
-102 -30 0
-102 -18 0
-102 -6 0
-90 -78 0
-90 -66 0
-90 -54 0
-90 -42 0
-90 -30 0
-90 -18 0
-90 -6 0
-78 -66 0
-78 -54 0
-78 -42 0
-78 -30 0
-78 -18 0
-78 -6 0
-66 -54 0
-66 -42 0
-66 -30 0
-66 -18 0
-66 -6 0
-54 -42 0
-54 -30 0
-54 -18 0
-54 -6 0
-42 -30 0
-42 -18 0
-42 -6 0
-30 -18 0
-30 -6 0
-18 -6 0
-149 -137 0
-149 -125 0
-149 -113 0
-149 -101 0
-149 -89 0
-149 -77 0
-149 -65 0
-149 -53 0
-149 -41 0
-149 -29 0
-149 -17 0
-149 -5 0
-137 -125 0
-137 -113 0
-137 -101 0
-137 -89 0
-137 -77 0
-137 -65 0
-137 -53 0
-137 -41 0
-137 -29 0
-137 -17 0
-137 -5 0
-125 -113 0
-125 -101 0
-125 -89 0
-125 -77 0
-125 -65 0
-125 -53 0
-125 -41 0
-125 -29 0
-125 -17 0
-125 -5 0
-113 -101 0
-113 -89 0
-113 -77 0
-113 -65 0
-113 -53 0
-113 -41 0
-113 -29 0
-113 -17 0
-113 -5 0
-101 -89 0
-101 -77 0
-101 -65 0
-101 -53 0
-101 -41 0
-101 -29 0
-101 -17 0
-101 -5 0
-89 -77 0
-89 -65 0
-89 -53 0
-89 -41 0
-89 -29 0
-89 -17 0
-89 -5 0
-77 -65 0
-77 -53 0
-77 -41 0
-77 -29 0
-77 -17 0
-77 -5 0
-65 -53 0
-65 -41 0
-65 -29 0
-65 -17 0
-65 -5 0
-53 -41 0
-53 -29 0
-53 -17 0
-53 -5 0
-41 -29 0
-41 -17 0
-41 -5 0
-29 -17 0
-29 -5 0
-17 -5 0
-148 -136 0
-148 -124 0
-148 -112 0
-148 -100 0
-148 -88 0
-148 -76 0
-148 -64 0
-148 -52 0
-148 -40 0
-148 -28 0
-148 -16 0
-148 -4 0
-136 -124 0
-136 -112 0
-136 -100 0
-136 -88 0
-136 -76 0
-136 -64 0
-136 -52 0
-136 -40 0
-136 -28 0
-136 -16 0
-136 -4 0
-124 -112 0
-124 -100 0
-124 -88 0
-124 -76 0
-124 -64 0
-124 -52 0
-124 -40 0
-124 -28 0
-124 -16 0
-124 -4 0
-112 -100 0
-112 -88 0
-112 -76 0
-112 -64 0
-112 -52 0
-112 -40 0
-112 -28 0
-112 -16 0
-112 -4 0
-100 -88 0
-100 -76 0
-100 -64 0
-100 -52 0
-100 -40 0
-100 -28 0
-100 -16 0
-100 -4 0
-88 -76 0
-88 -64 0
-88 -52 0
-88 -40 0
-88 -28 0
-88 -16 0
-88 -4 0
-76 -64 0
-76 -52 0
-76 -40 0
-76 -28 0
-76 -16 0
-76 -4 0
-64 -52 0
-64 -40 0
-64 -28 0
-64 -16 0
-64 -4 0
-52 -40 0
-52 -28 0
-52 -16 0
-52 -4 0
-40 -28 0
-40 -16 0
-40 -4 0
-28 -16 0
-28 -4 0
-16 -4 0
-147 -135 0
-147 -123 0
-147 -111 0
-147 -99 0
-147 -87 0
-147 -75 0
-147 -63 0
-147 -51 0
-147 -39 0
-147 -27 0
-147 -15 0
-147 -3 0
-135 -123 0
-135 -111 0
-135 -99 0
-135 -87 0
-135 -75 0
-135 -63 0
-135 -51 0
-135 -39 0
-135 -27 0
-135 -15 0
-135 -3 0
-123 -111 0
-123 -99 0
-123 -87 0
-123 -75 0
-123 -63 0
-123 -51 0
-123 -39 0
-123 -27 0
-123 -15 0
-123 -3 0
-111 -99 0
-111 -87 0
-111 -75 0
-111 -63 0
-111 -51 0
-111 -39 0
-111 -27 0
-111 -15 0
-111 -3 0
-99 -87 0
-99 -75 0
-99 -63 0
-99 -51 0
-99 -39 0
-99 -27 0
-99 -15 0
-99 -3 0
-87 -75 0
-87 -63 0
-87 -51 0
-87 -39 0
-87 -27 0
-87 -15 0
-87 -3 0
-75 -63 0
-75 -51 0
-75 -39 0
-75 -27 0
-75 -15 0
-75 -3 0
-63 -51 0
-63 -39 0
-63 -27 0
-63 -15 0
-63 -3 0
-51 -39 0
-51 -27 0
-51 -15 0
-51 -3 0
-39 -27 0
-39 -15 0
-39 -3 0
-27 -15 0
-27 -3 0
-15 -3 0
-146 -134 0
-146 -122 0
-146 -110 0
-146 -98 0
-146 -86 0
-146 -74 0
-146 -62 0
-146 -50 0
-146 -38 0
-146 -26 0
-146 -14 0
-146 -2 0
-134 -122 0
-134 -110 0
-134 -98 0
-134 -86 0
-134 -74 0
-134 -62 0
-134 -50 0
-134 -38 0
-134 -26 0
-134 -14 0
-134 -2 0
-122 -110 0
-122 -98 0
-122 -86 0
-122 -74 0
-122 -62 0
-122 -50 0
-122 -38 0
-122 -26 0
-122 -14 0
-122 -2 0
-110 -98 0
-110 -86 0
-110 -74 0
-110 -62 0
-110 -50 0
-110 -38 0
-110 -26 0
-110 -14 0
-110 -2 0
-98 -86 0
-98 -74 0
-98 -62 0
-98 -50 0
-98 -38 0
-98 -26 0
-98 -14 0
-98 -2 0
-86 -74 0
-86 -62 0
-86 -50 0
-86 -38 0
-86 -26 0
-86 -14 0
-86 -2 0
-74 -62 0
-74 -50 0
-74 -38 0
-74 -26 0
-74 -14 0
-74 -2 0
-62 -50 0
-62 -38 0
-62 -26 0
-62 -14 0
-62 -2 0
-50 -38 0
-50 -26 0
-50 -14 0
-50 -2 0
-38 -26 0
-38 -14 0
-38 -2 0
-26 -14 0
-26 -2 0
-14 -2 0
-145 -133 0
-145 -121 0
-145 -109 0
-145 -97 0
-145 -85 0
-145 -73 0
-145 -61 0
-145 -49 0
-145 -37 0
-145 -25 0
-145 -13 0
-145 -1 0
-133 -121 0
-133 -109 0
-133 -97 0
-133 -85 0
-133 -73 0
-133 -61 0
-133 -49 0
-133 -37 0
-133 -25 0
-133 -13 0
-133 -1 0
-121 -109 0
-121 -97 0
-121 -85 0
-121 -73 0
-121 -61 0
-121 -49 0
-121 -37 0
-121 -25 0
-121 -13 0
-121 -1 0
-109 -97 0
-109 -85 0
-109 -73 0
-109 -61 0
-109 -49 0
-109 -37 0
-109 -25 0
-109 -13 0
-109 -1 0
-97 -85 0
-97 -73 0
-97 -61 0
-97 -49 0
-97 -37 0
-97 -25 0
-97 -13 0
-97 -1 0
-85 -73 0
-85 -61 0
-85 -49 0
-85 -37 0
-85 -25 0
-85 -13 0
-85 -1 0
-73 -61 0
-73 -49 0
-73 -37 0
-73 -25 0
-73 -13 0
-73 -1 0
-61 -49 0
-61 -37 0
-61 -25 0
-61 -13 0
-61 -1 0
-49 -37 0
-49 -25 0
-49 -13 0
-49 -1 0
-37 -25 0
-37 -13 0
-37 -1 0
-25 -13 0
-25 -1 0
-13 -1 0
